0	337	15	0	200
1	166	270	0	200
2	404	110	0	200
3	2	48	0	200
4	275	67	0	200
5	86	385	0	200
6	468	324	0	200
7	1	208	0	200
8	383	71	0	200
9	242	406	0	200
10	277	437	0	200
11	491	85	0	200
12	155	36	0	200
13	487	203	0	200
14	61	450	0	200
15	37	229	0	200
16	225	160	0	200
17	425	310	0	200
18	116	217	0	200
19	367	190	0	200
20	120	139	0	200
21	60	341	0	200
22	55	465	0	200
23	198	330	0	200
24	218	267	0	200
